Route #1: 1 27 20 8 26 14 61 17 11 50 49 1
Route #2: 1 12 34 45 16 57 1
Route #3: 1 22 41 15 33 56 59 51 36 54 1
Route #4: 1 38 58 19 2 39 10 1
Route #5: 1 55 30 31 3 6 46 28 1
Route #6: 1 4 42 43 32 44 48 47 5 53 1
Route #7: 1 21 62 40 24 63 52 7 1
Route #8: 1 35 9 60 25 37 1
Route #9: 1 13 29 23 18 1
cost 1833.8794187695826
